NAME          
ROWS
 N  OBJ
 L  c1
COLUMNS
    MARKER    'MARKER'                 'INTORG'
    x[1]      c1        982
    x[1]      OBJ       -571
    x[2]      c1        123
    x[2]      OBJ       -93
    x[3]      c1        151
    x[3]      OBJ       -822
    x[4]      c1        948
    x[4]      OBJ       -836
    x[5]      c1        942
    x[5]      OBJ       -810
    x[6]      c1        991
    x[6]      OBJ       -139
    x[7]      c1        777
    x[7]      OBJ       -623
    x[8]      c1        890
    x[8]      OBJ       -308
    x[9]      c1        280
    x[9]      OBJ       -118
    x[10]     c1        232
    x[10]     OBJ       -657
    x[11]     c1        798
    x[11]     OBJ       -867
    x[12]     c1        137
    x[12]     OBJ       -937
    x[13]     c1        342
    x[13]     OBJ       -993
    x[14]     c1        274
    x[14]     OBJ       -636
    x[15]     c1        119
    x[15]     OBJ       -109
    x[16]     c1        150
    x[16]     OBJ       -343
    x[17]     c1        664
    x[17]     OBJ       -402
    x[18]     c1        356
    x[18]     OBJ       -518
    x[19]     c1        168
    x[19]     OBJ       -914
    x[20]     c1        728
    x[20]     OBJ       -227
    x[21]     c1        541
    x[21]     OBJ       -196
    x[22]     c1        794
    x[22]     OBJ       -60
    x[23]     c1        197
    x[23]     OBJ       -548
    x[24]     c1        850
    x[24]     OBJ       -541
    x[25]     c1        819
    x[25]     OBJ       -900
    x[26]     c1        269
    x[26]     OBJ       -19
    x[27]     c1        25
    x[27]     OBJ       -526
    x[28]     c1        114
    x[28]     OBJ       -43
    x[29]     c1        387
    x[29]     OBJ       -57
    x[30]     c1        697
    x[30]     OBJ       -947
RHS
    rhs       c1        7372
RANGES
BOUNDS
 LO bounds    x[1]      0
 PL bounds    x[1]
 LO bounds    x[2]      0
 PL bounds    x[2]
 LO bounds    x[3]      0
 PL bounds    x[3]
 LO bounds    x[4]      0
 PL bounds    x[4]
 LO bounds    x[5]      0
 PL bounds    x[5]
 LO bounds    x[6]      0
 PL bounds    x[6]
 LO bounds    x[7]      0
 PL bounds    x[7]
 LO bounds    x[8]      0
 PL bounds    x[8]
 LO bounds    x[9]      0
 PL bounds    x[9]
 LO bounds    x[10]     0
 PL bounds    x[10]
 LO bounds    x[11]     0
 PL bounds    x[11]
 LO bounds    x[12]     0
 PL bounds    x[12]
 LO bounds    x[13]     0
 PL bounds    x[13]
 LO bounds    x[14]     0
 PL bounds    x[14]
 LO bounds    x[15]     0
 PL bounds    x[15]
 LO bounds    x[16]     0
 PL bounds    x[16]
 LO bounds    x[17]     0
 PL bounds    x[17]
 LO bounds    x[18]     0
 PL bounds    x[18]
 LO bounds    x[19]     0
 PL bounds    x[19]
 LO bounds    x[20]     0
 PL bounds    x[20]
 LO bounds    x[21]     0
 PL bounds    x[21]
 LO bounds    x[22]     0
 PL bounds    x[22]
 LO bounds    x[23]     0
 PL bounds    x[23]
 LO bounds    x[24]     0
 PL bounds    x[24]
 LO bounds    x[25]     0
 PL bounds    x[25]
 LO bounds    x[26]     0
 PL bounds    x[26]
 LO bounds    x[27]     0
 PL bounds    x[27]
 LO bounds    x[28]     0
 PL bounds    x[28]
 LO bounds    x[29]     0
 PL bounds    x[29]
 LO bounds    x[30]     0
 PL bounds    x[30]
ENDATA
